
Gurobi 7.5.1 (win64) logging started 12/06/18 20:43:40


Gurobi 7.5.1 (win64) logging started 12/06/18 20:44:00

Academic license - for non-commercial use only
Warning for adding constraints: zero or small (< 1e-13) coefficients, ignored
Optimize a model with 7 rows, 9 columns and 20 nonzeros
Variable types: 5 continuous, 4 integer (4 binary)
Coefficient statistics:
  Matrix range     [1e+00, 9e+00]
  Objective range  [1e+00, 5e+00]
  Bounds range     [1e+00, 1e+00]
  RHS range        [2e+00, 2e+00]
Found heuristic solution: objective 0
Presolve removed 6 rows and 6 columns
Presolve time: 0.00s
Presolved: 1 rows, 3 columns, 3 nonzeros
Variable types: 3 continuous, 0 integer (0 binary)

Root relaxation: objective -5.294118e-01, 0 iterations, 0.00 seconds

    Nodes    |    Current Node    |     Objective Bounds      |     Work
 Expl Unexpl |  Obj  Depth IntInf | Incumbent    BestBd   Gap | It/Node Time

*    0     0               0      -0.5294118   -0.52941  0.00%     -    0s

Explored 0 nodes (0 simplex iterations) in 0.02 seconds
Thread count was 8 (of 8 available processors)

Solution count 2: -0.529412 0 

Optimal solution found (tolerance 1.00e-04)
Best objective -5.294117647059e-01, best bound -5.294117647059e-01, gap 0.0000%

Gurobi 7.5.1 (win64) logging started 12/06/18 20:48:59

Academic license - for non-commercial use only
Optimize a model with 7 rows, 9 columns and 22 nonzeros
Variable types: 5 continuous, 4 integer (4 binary)
Coefficient statistics:
  Matrix range     [1e+00, 9e+00]
  Objective range  [1e+00, 5e+00]
  Bounds range     [1e+00, 1e+00]
  RHS range        [2e+00, 2e+00]
Found heuristic solution: objective 0
Presolve removed 7 rows and 9 columns
Presolve time: 0.00s
Presolve: All rows and columns removed

Explored 0 nodes (0 simplex iterations) in 0.01 seconds
Thread count was 1 (of 8 available processors)

Solution count 2: -2 0 

Optimal solution found (tolerance 1.00e-04)
Best objective -2.000000000000e+00, best bound -2.000000000000e+00, gap 0.0000%

Gurobi 7.5.1 (win64) logging started 12/06/18 20:57:15

Academic license - for non-commercial use only
Optimize a model with 7 rows, 9 columns and 22 nonzeros
Variable types: 5 continuous, 4 integer (4 binary)
Coefficient statistics:
  Matrix range     [1e+00, 9e+00]
  Objective range  [1e+00, 5e+00]
  Bounds range     [1e+00, 1e+00]
  RHS range        [2e+00, 2e+00]
Found heuristic solution: objective 0
Presolve removed 7 rows and 9 columns
Presolve time: 0.00s
Presolve: All rows and columns removed

Explored 0 nodes (0 simplex iterations) in 0.00 seconds
Thread count was 1 (of 8 available processors)

Solution count 2: -2 0 

Optimal solution found (tolerance 1.00e-04)
Best objective -2.000000000000e+00, best bound -2.000000000000e+00, gap 0.0000%

Gurobi 7.5.1 (win64) logging started 12/06/18 20:57:21

Academic license - for non-commercial use only
Optimize a model with 7 rows, 9 columns and 22 nonzeros
Variable types: 5 continuous, 4 integer (4 binary)
Coefficient statistics:
  Matrix range     [1e+00, 9e+00]
  Objective range  [1e+00, 5e+00]
  Bounds range     [1e+00, 1e+00]
  RHS range        [2e+00, 2e+00]
Found heuristic solution: objective 0
Presolve removed 7 rows and 9 columns
Presolve time: 0.00s
Presolve: All rows and columns removed

Explored 0 nodes (0 simplex iterations) in 0.00 seconds
Thread count was 1 (of 8 available processors)

Solution count 2: -2 0 

Optimal solution found (tolerance 1.00e-04)
Best objective -2.000000000000e+00, best bound -2.000000000000e+00, gap 0.0000%

Gurobi 7.5.1 (win64) logging started 12/06/18 20:57:32

Academic license - for non-commercial use only
Optimize a model with 7 rows, 9 columns and 22 nonzeros
Variable types: 5 continuous, 4 integer (4 binary)
Coefficient statistics:
  Matrix range     [1e+00, 9e+00]
  Objective range  [1e+00, 5e+00]
  Bounds range     [1e+00, 1e+00]
  RHS range        [2e+00, 2e+00]
Found heuristic solution: objective 0
Presolve removed 7 rows and 9 columns
Presolve time: 0.00s
Presolve: All rows and columns removed

Explored 0 nodes (0 simplex iterations) in 0.00 seconds
Thread count was 1 (of 8 available processors)

Solution count 2: -2 0 

Optimal solution found (tolerance 1.00e-04)
Best objective -2.000000000000e+00, best bound -2.000000000000e+00, gap 0.0000%

Gurobi 7.5.1 (win64) logging started 12/06/18 20:59:20

Academic license - for non-commercial use only
Optimize a model with 7 rows, 9 columns and 22 nonzeros
Variable types: 5 continuous, 4 integer (4 binary)
Coefficient statistics:
  Matrix range     [1e+00, 9e+00]
  Objective range  [1e+00, 5e+00]
  Bounds range     [1e+00, 1e+00]
  RHS range        [2e+00, 2e+00]
Found heuristic solution: objective 0
Presolve removed 7 rows and 9 columns
Presolve time: 0.00s
Presolve: All rows and columns removed

Explored 0 nodes (0 simplex iterations) in 0.00 seconds
Thread count was 1 (of 8 available processors)

Solution count 2: -2 0 

Optimal solution found (tolerance 1.00e-04)
Best objective -2.000000000000e+00, best bound -2.000000000000e+00, gap 0.0000%
